result&benchmarks/Data/Ex1/verify/Output/for_bounded_loop1_process_dc_iter1Output/Counterexample.3.smt2
(set-info :source |printed by MathSAT|)
(declare-fun |main::n@3| () (_ BitVec 32))
(declare-fun |main::tmp_var_1_int@3| () (_ BitVec 32))
(declare-fun |main::local_20@2| () (_ BitVec 32))
(declare-fun |main::y@3| () (_ BitVec 32))
(declare-fun |main::iVar1@3| () (_ BitVec 32))
(declare-fun |main::local_24@2| () (_ BitVec 32))
(declare-fun |main::tmp_var_1_int@4| () (_ BitVec 32))
(declare-fun |main::n@4| () (_ BitVec 32))
(declare-fun |main::y@4| () (_ BitVec 32))
(assert (let ((.def_28 (bvslt |main::y@3| |main::local_20@2|)))(let ((.def_23 (= |main::y@3| (_ bv0 32))))(let ((.def_16 (bvslt (_ bv0 32) |main::local_20@2|)))(let ((.def_13 (= |main::tmp_var_1_int@3| (_ bv0 32))))(let ((.def_11 (= |main::n@3| (_ bv0 32))))(let ((.def_14 (and .def_11 .def_13)))(let ((.def_19 (and .def_14 .def_16)))(let ((.def_24 (and .def_19 .def_23)))(let ((.def_198 (and .def_24 .def_28)))(let ((.def_60 (bvneg |main::tmp_var_1_int@3|)))(let ((.def_61 (bvadd |main::n@3| .def_60)))(let ((.def_63 (= .def_61 |main::iVar1@3|)))(let ((.def_199 (and .def_63 .def_198)))(let ((.def_65 (= |main::iVar1@3| (_ bv0 32))))(let ((.def_200 (and .def_65 .def_199)))(let ((.def_81 (= |main::local_24@2| |main::tmp_var_1_int@4|)))(let ((.def_201 (and .def_81 .def_200)))(let ((.def_83 (= |main::local_24@2| (_ bv0 32))))(let ((.def_86 (not .def_83)))(let ((.def_202 (and .def_86 .def_201)))(let ((.def_89 (bvadd |main::iVar1@3| |main::local_24@2|)))(let ((.def_91 (= .def_89 |main::n@4|)))(let ((.def_203 (and .def_91 .def_202)))(let ((.def_93 (= |main::n@4| (_ bv0 32))))(let ((.def_96 (not .def_93)))(let ((.def_204 (and .def_96 .def_203)))(let ((.def_108 (bvadd (_ bv1 32) |main::y@3|)))(let ((.def_110 (= .def_108 |main::y@4|)))(let ((.def_205 (and .def_110 .def_204)))(let ((.def_119 (bvslt |main::y@4| |main::local_20@2|)))(let ((.def_121 (not .def_119)))(let ((.def_206 (and .def_121 .def_205)))(let ((.def_207 (and .def_96 .def_206))).def_207))))))))))))))))))))))))))))))))))