result&benchmarks/Data/Ex1/verify/Output/for_bounded_loop1_process_dc_iter1Output/Counterexample.3.txt
none:	N37 -{INIT GLOBAL VARS}-> N100
/usr/include/assert.h, lines 69-71:	N100 -{void __assert_fail(const char *__assertion, const char *__file, unsigned int __line, const char *__function);}-> N101
/usr/include/assert.h, lines 74-76:	N101 -{void __assert_perror_fail(int __errnum, const char *__file, unsigned int __line, const char *__function);}-> N102
/usr/include/assert.h, lines 81-82:	N102 -{void __assert(const char *__assertion, const char *__file, int __line);}-> N103
/usr/lib/gcc/x86_64-linux-gnu/11/include/stddef.h, line 209:	N103 -{typedef unsigned long int size_t;}-> N104
/usr/lib/gcc/x86_64-linux-gnu/11/include/stddef.h, line 321:	N104 -{typedef int wchar_t;}-> N105
/usr/include/stdlib.h, lines 59-63:	N105 -{struct __anon_type_div_t {   int quot;   int rem; } ;}-> N106
/usr/include/stdlib.h, lines 59-63:	N106 -{typedef struct __anon_type_div_t div_t;}-> N107
/usr/include/stdlib.h, lines 67-71:	N107 -{struct __anon_type_ldiv_t {   long int quot;   long int rem; } ;}-> N108
/usr/include/stdlib.h, lines 67-71:	N108 -{typedef struct __anon_type_ldiv_t ldiv_t;}-> N109
/usr/include/stdlib.h, lines 77-81:	N109 -{struct __anon_type_lldiv_t {   long long int quot;   long long int rem; } ;}-> N110
/usr/include/stdlib.h, lines 77-81:	N110 -{typedef struct __anon_type_lldiv_t lldiv_t;}-> N111
/usr/include/stdlib.h, line 98:	N111 -{size_t __ctype_get_mb_cur_max();}-> N112
/usr/include/stdlib.h, lines 102-103:	N112 -{double atof(const char *__nptr);}-> N113
/usr/include/stdlib.h, lines 105-106:	N113 -{int atoi(const char *__nptr);}-> N114
/usr/include/stdlib.h, lines 108-109:	N114 -{long int atol(const char *__nptr);}-> N115
/usr/include/stdlib.h, lines 113-114:	N115 -{long long int atoll(const char *__nptr);}-> N116
/usr/include/stdlib.h, lines 118-120:	N116 -{double strtod(const char *__nptr, char **__endptr);}-> N117
/usr/include/stdlib.h, lines 124-125:	N117 -{float strtof(const char *__nptr, char **__endptr);}-> N118
/usr/include/stdlib.h, lines 127-129:	N118 -{long double strtold(const char *__nptr, char **__endptr);}-> N119
/usr/include/stdlib.h, lines 177-179:	N119 -{long int strtol(const char *__nptr, char **__endptr, int __base);}-> N120
/usr/include/stdlib.h, lines 181-183:	N120 -{unsigned long int strtoul(const char *__nptr, char **__endptr, int __base);}-> N121
/usr/include/stdlib.h, lines 188-190:	N121 -{long long int strtoq(const char *__nptr, char **__endptr, int __base);}-> N122
/usr/include/stdlib.h, lines 193-195:	N122 -{unsigned long long int strtouq(const char *__nptr, char **__endptr, int __base);}-> N123
/usr/include/stdlib.h, lines 201-203:	N123 -{long long int strtoll(const char *__nptr, char **__endptr, int __base);}-> N124
/usr/include/stdlib.h, lines 206-208:	N124 -{unsigned long long int strtoull(const char *__nptr, char **__endptr, int __base);}-> N125
/usr/include/stdlib.h, line 386:	N125 -{char *l64a(long int __n);}-> N126
/usr/include/stdlib.h, lines 389-390:	N126 -{long int a64l(const char *__s);}-> N127
/usr/include/x86_64-linux-gnu/bits/types.h, line 31:	N127 -{typedef unsigned char __u_char;}-> N128
/usr/include/x86_64-linux-gnu/bits/types.h, line 32:	N128 -{typedef unsigned short int __u_short;}-> N129
/usr/include/x86_64-linux-gnu/bits/types.h, line 33:	N129 -{typedef unsigned int __u_int;}-> N130
/usr/include/x86_64-linux-gnu/bits/types.h, line 34:	N130 -{typedef unsigned long int __u_long;}-> N131
/usr/include/x86_64-linux-gnu/bits/types.h, line 37:	N131 -{typedef signed char __int8_t;}-> N132
/usr/include/x86_64-linux-gnu/bits/types.h, line 38:	N132 -{typedef unsigned char __uint8_t;}-> N133
/usr/include/x86_64-linux-gnu/bits/types.h, line 39:	N133 -{typedef signed short int __int16_t;}-> N134
/usr/include/x86_64-linux-gnu/bits/types.h, line 40:	N134 -{typedef unsigned short int __uint16_t;}-> N135
/usr/include/x86_64-linux-gnu/bits/types.h, line 41:	N135 -{typedef signed int __int32_t;}-> N136
/usr/include/x86_64-linux-gnu/bits/types.h, line 42:	N136 -{typedef unsigned int __uint32_t;}-> N137
/usr/include/x86_64-linux-gnu/bits/types.h, line 44:	N137 -{typedef signed long int __int64_t;}-> N138
/usr/include/x86_64-linux-gnu/bits/types.h, line 45:	N138 -{typedef unsigned long int __uint64_t;}-> N139
/usr/include/x86_64-linux-gnu/bits/types.h, line 52:	N139 -{typedef __int8_t __int_least8_t;}-> N140
/usr/include/x86_64-linux-gnu/bits/types.h, line 53:	N140 -{typedef __uint8_t __uint_least8_t;}-> N141
/usr/include/x86_64-linux-gnu/bits/types.h, line 54:	N141 -{typedef __int16_t __int_least16_t;}-> N142
/usr/include/x86_64-linux-gnu/bits/types.h, line 55:	N142 -{typedef __uint16_t __uint_least16_t;}-> N143
/usr/include/x86_64-linux-gnu/bits/types.h, line 56:	N143 -{typedef __int32_t __int_least32_t;}-> N144
/usr/include/x86_64-linux-gnu/bits/types.h, line 57:	N144 -{typedef __uint32_t __uint_least32_t;}-> N145
/usr/include/x86_64-linux-gnu/bits/types.h, line 58:	N145 -{typedef __int64_t __int_least64_t;}-> N146
/usr/include/x86_64-linux-gnu/bits/types.h, line 59:	N146 -{typedef __uint64_t __uint_least64_t;}-> N147
/usr/include/x86_64-linux-gnu/bits/types.h, line 63:	N147 -{typedef long int __quad_t;}-> N148
/usr/include/x86_64-linux-gnu/bits/types.h, line 64:	N148 -{typedef unsigned long int __u_quad_t;}-> N149
/usr/include/x86_64-linux-gnu/bits/types.h, line 72:	N149 -{typedef long int __intmax_t;}-> N150
/usr/include/x86_64-linux-gnu/bits/types.h, line 73:	N150 -{typedef unsigned long int __uintmax_t;}-> N151
/usr/include/x86_64-linux-gnu/bits/types.h, line 145:	N151 -{typedef unsigned long int __dev_t;}-> N152
/usr/include/x86_64-linux-gnu/bits/types.h, line 146:	N152 -{typedef unsigned int __uid_t;}-> N153
/usr/include/x86_64-linux-gnu/bits/types.h, line 147:	N153 -{typedef unsigned int __gid_t;}-> N154
/usr/include/x86_64-linux-gnu/bits/types.h, line 148:	N154 -{typedef unsigned long int __ino_t;}-> N155
/usr/include/x86_64-linux-gnu/bits/types.h, line 149:	N155 -{typedef unsigned long int __ino64_t;}-> N156
/usr/include/x86_64-linux-gnu/bits/types.h, line 150:	N156 -{typedef unsigned int __mode_t;}-> N157
/usr/include/x86_64-linux-gnu/bits/types.h, line 151:	N157 -{typedef unsigned long int __nlink_t;}-> N158
/usr/include/x86_64-linux-gnu/bits/types.h, line 152:	N158 -{typedef long int __off_t;}-> N159
/usr/include/x86_64-linux-gnu/bits/types.h, line 153:	N159 -{typedef long int __off64_t;}-> N160
/usr/include/x86_64-linux-gnu/bits/types.h, line 154:	N160 -{typedef int __pid_t;}-> N161
/usr/include/x86_64-linux-gnu/bits/types.h, line 155:	N161 -{struct __anon_type___fsid_t {   int __val[2]; } ;}-> N162
/usr/include/x86_64-linux-gnu/bits/types.h, line 155:	N162 -{typedef struct __anon_type___fsid_t __fsid_t;}-> N163
/usr/include/x86_64-linux-gnu/bits/types.h, line 156:	N163 -{typedef long int __clock_t;}-> N164
/usr/include/x86_64-linux-gnu/bits/types.h, line 157:	N164 -{typedef unsigned long int __rlim_t;}-> N165
/usr/include/x86_64-linux-gnu/bits/types.h, line 158:	N165 -{typedef unsigned long int __rlim64_t;}-> N166
/usr/include/x86_64-linux-gnu/bits/types.h, line 159:	N166 -{typedef unsigned int __id_t;}-> N167
/usr/include/x86_64-linux-gnu/bits/types.h, line 160:	N167 -{typedef long int __time_t;}-> N168
/usr/include/x86_64-linux-gnu/bits/types.h, line 161:	N168 -{typedef unsigned int __useconds_t;}-> N169
/usr/include/x86_64-linux-gnu/bits/types.h, line 162:	N169 -{typedef long int __suseconds_t;}-> N170
/usr/include/x86_64-linux-gnu/bits/types.h, line 163:	N170 -{typedef long int __suseconds64_t;}-> N171
/usr/include/x86_64-linux-gnu/bits/types.h, line 165:	N171 -{typedef int __daddr_t;}-> N172
/usr/include/x86_64-linux-gnu/bits/types.h, line 166:	N172 -{typedef int __key_t;}-> N173
/usr/include/x86_64-linux-gnu/bits/types.h, line 169:	N173 -{typedef int __clockid_t;}-> N174
/usr/include/x86_64-linux-gnu/bits/types.h, line 172:	N174 -{typedef void *__timer_t;}-> N175
/usr/include/x86_64-linux-gnu/bits/types.h, line 175:	N175 -{typedef long int __blksize_t;}-> N176
/usr/include/x86_64-linux-gnu/bits/types.h, line 180:	N176 -{typedef long int __blkcnt_t;}-> N177
/usr/include/x86_64-linux-gnu/bits/types.h, line 181:	N177 -{typedef long int __blkcnt64_t;}-> N178
/usr/include/x86_64-linux-gnu/bits/types.h, line 184:	N178 -{typedef unsigned long int __fsblkcnt_t;}-> N179
/usr/include/x86_64-linux-gnu/bits/types.h, line 185:	N179 -{typedef unsigned long int __fsblkcnt64_t;}-> N180
/usr/include/x86_64-linux-gnu/bits/types.h, line 188:	N180 -{typedef unsigned long int __fsfilcnt_t;}-> N181
/usr/include/x86_64-linux-gnu/bits/types.h, line 189:	N181 -{typedef unsigned long int __fsfilcnt64_t;}-> N182
/usr/include/x86_64-linux-gnu/bits/types.h, line 192:	N182 -{typedef long int __fsword_t;}-> N183
/usr/include/x86_64-linux-gnu/bits/types.h, line 194:	N183 -{typedef long int __ssize_t;}-> N184
/usr/include/x86_64-linux-gnu/bits/types.h, line 197:	N184 -{typedef long int __syscall_slong_t;}-> N185
/usr/include/x86_64-linux-gnu/bits/types.h, line 199:	N185 -{typedef unsigned long int __syscall_ulong_t;}-> N186
/usr/include/x86_64-linux-gnu/bits/types.h, line 203:	N186 -{typedef __off64_t __loff_t;}-> N187
/usr/include/x86_64-linux-gnu/bits/types.h, line 204:	N187 -{typedef char *__caddr_t;}-> N188
/usr/include/x86_64-linux-gnu/bits/types.h, line 207:	N188 -{typedef long int __intptr_t;}-> N189
/usr/include/x86_64-linux-gnu/bits/types.h, line 210:	N189 -{typedef unsigned int __socklen_t;}-> N190
/usr/include/x86_64-linux-gnu/bits/types.h, line 215:	N190 -{typedef int __sig_atomic_t;}-> N191
/usr/include/x86_64-linux-gnu/sys/types.h, line 33:	N191 -{typedef __u_char u_char;}-> N192
/usr/include/x86_64-linux-gnu/sys/types.h, line 34:	N192 -{typedef __u_short u_short;}-> N193
/usr/include/x86_64-linux-gnu/sys/types.h, line 35:	N193 -{typedef __u_int u_int;}-> N194
/usr/include/x86_64-linux-gnu/sys/types.h, line 36:	N194 -{typedef __u_long u_long;}-> N195
/usr/include/x86_64-linux-gnu/sys/types.h, line 37:	N195 -{typedef __quad_t quad_t;}-> N196
/usr/include/x86_64-linux-gnu/sys/types.h, line 38:	N196 -{typedef __u_quad_t u_quad_t;}-> N197
/usr/include/x86_64-linux-gnu/sys/types.h, line 39:	N197 -{typedef __fsid_t fsid_t;}-> N198
/usr/include/x86_64-linux-gnu/sys/types.h, line 42:	N198 -{typedef __loff_t loff_t;}-> N199
/usr/include/x86_64-linux-gnu/sys/types.h, line 47:	N199 -{typedef __ino_t ino_t;}-> N200
/usr/include/x86_64-linux-gnu/sys/types.h, line 59:	N200 -{typedef __dev_t dev_t;}-> N201
/usr/include/x86_64-linux-gnu/sys/types.h, line 64:	N201 -{typedef __gid_t gid_t;}-> N202
/usr/include/x86_64-linux-gnu/sys/types.h, line 69:	N202 -{typedef __mode_t mode_t;}-> N203
/usr/include/x86_64-linux-gnu/sys/types.h, line 74:	N203 -{typedef __nlink_t nlink_t;}-> N204
/usr/include/x86_64-linux-gnu/sys/types.h, line 79:	N204 -{typedef __uid_t uid_t;}-> N205
/usr/include/x86_64-linux-gnu/sys/types.h, line 85:	N205 -{typedef __off_t off_t;}-> N206
/usr/include/x86_64-linux-gnu/sys/types.h, line 97:	N206 -{typedef __pid_t pid_t;}-> N207
/usr/include/x86_64-linux-gnu/sys/types.h, line 103:	N207 -{typedef __id_t id_t;}-> N208
/usr/include/x86_64-linux-gnu/sys/types.h, line 108:	N208 -{typedef __ssize_t ssize_t;}-> N209
/usr/include/x86_64-linux-gnu/sys/types.h, line 114:	N209 -{typedef __daddr_t daddr_t;}-> N210
/usr/include/x86_64-linux-gnu/sys/types.h, line 115:	N210 -{typedef __caddr_t caddr_t;}-> N211
/usr/include/x86_64-linux-gnu/sys/types.h, line 121:	N211 -{typedef __key_t key_t;}-> N212
/usr/include/x86_64-linux-gnu/bits/types/clock_t.h, line 7:	N212 -{typedef __clock_t clock_t;}-> N213
/usr/include/x86_64-linux-gnu/bits/types/clockid_t.h, line 7:	N213 -{typedef __clockid_t clockid_t;}-> N214
/usr/include/x86_64-linux-gnu/bits/types/time_t.h, line 10:	N214 -{typedef __time_t time_t;}-> N215
/usr/include/x86_64-linux-gnu/bits/types/timer_t.h, line 7:	N215 -{typedef __timer_t timer_t;}-> N216
/usr/include/x86_64-linux-gnu/sys/types.h, line 148:	N216 -{typedef unsigned long int ulong;}-> N217
/usr/include/x86_64-linux-gnu/sys/types.h, line 149:	N217 -{typedef unsigned short int ushort;}-> N218
/usr/include/x86_64-linux-gnu/sys/types.h, line 150:	N218 -{typedef unsigned int uint;}-> N219
/usr/include/x86_64-linux-gnu/bits/stdint-intn.h, line 24:	N219 -{typedef __int8_t int8_t;}-> N220
/usr/include/x86_64-linux-gnu/bits/stdint-intn.h, line 25:	N220 -{typedef __int16_t int16_t;}-> N221
/usr/include/x86_64-linux-gnu/bits/stdint-intn.h, line 26:	N221 -{typedef __int32_t int32_t;}-> N222
/usr/include/x86_64-linux-gnu/bits/stdint-intn.h, line 27:	N222 -{typedef __int64_t int64_t;}-> N223
/usr/include/x86_64-linux-gnu/sys/types.h, line 158:	N223 -{typedef __uint8_t u_int8_t;}-> N224
/usr/include/x86_64-linux-gnu/sys/types.h, line 159:	N224 -{typedef __uint16_t u_int16_t;}-> N225
/usr/include/x86_64-linux-gnu/sys/types.h, line 160:	N225 -{typedef __uint32_t u_int32_t;}-> N226
/usr/include/x86_64-linux-gnu/sys/types.h, line 161:	N226 -{typedef __uint64_t u_int64_t;}-> N227
/usr/include/x86_64-linux-gnu/sys/types.h, line 164:	N227 -{typedef signed int register_t;}-> N228
/usr/include/x86_64-linux-gnu/bits/byteswap.h, lines 33-41:	N228 -{__uint16_t __bswap_16(__uint16_t __bsx);}-> N229
/usr/include/x86_64-linux-gnu/bits/byteswap.h, lines 48-56:	N229 -{__uint32_t __bswap_32(__uint32_t __bsx);}-> N230
/usr/include/x86_64-linux-gnu/bits/byteswap.h, lines 69-77:	N230 -{__uint64_t __bswap_64(__uint64_t __bsx);}-> N231
/usr/include/x86_64-linux-gnu/bits/uintn-identity.h, lines 32-36:	N231 -{__uint16_t __uint16_identity(__uint16_t __x);}-> N232
/usr/include/x86_64-linux-gnu/bits/uintn-identity.h, lines 38-42:	N232 -{__uint32_t __uint32_identity(__uint32_t __x);}-> N233
/usr/include/x86_64-linux-gnu/bits/uintn-identity.h, lines 44-48:	N233 -{__uint64_t __uint64_identity(__uint64_t __x);}-> N234
/usr/include/x86_64-linux-gnu/bits/types/__sigset_t.h, lines 5-8:	N234 -{struct __anon_type___sigset_t {   unsigned long int __val[32UL]; } ;}-> N235
/usr/include/x86_64-linux-gnu/bits/types/__sigset_t.h, lines 5-8:	N235 -{typedef struct __anon_type___sigset_t __sigset_t;}-> N236
/usr/include/x86_64-linux-gnu/bits/types/sigset_t.h, line 7:	N236 -{typedef __sigset_t sigset_t;}-> N237
/usr/include/x86_64-linux-gnu/bits/types/struct_timeval.h, lines 8-17:	N237 -{struct timeval {   __time_t tv_sec;   __suseconds_t tv_usec; } ;}-> N238
/usr/include/x86_64-linux-gnu/bits/types/struct_timespec.h, lines 11-31:	N238 -{struct timespec {   __time_t tv_sec;   __syscall_slong_t tv_nsec; } ;}-> N239
/usr/include/x86_64-linux-gnu/sys/select.h, line 43:	N239 -{typedef __suseconds_t suseconds_t;}-> N240
/usr/include/x86_64-linux-gnu/sys/select.h, line 49:	N240 -{typedef long int __fd_mask;}-> N241
/usr/include/x86_64-linux-gnu/sys/select.h, lines 59-70:	N241 -{struct __anon_type_fd_set {   __fd_mask __fds_bits[32]; } ;}-> N242
/usr/include/x86_64-linux-gnu/sys/select.h, lines 59-70:	N242 -{typedef struct __anon_type_fd_set fd_set;}-> N243
/usr/include/x86_64-linux-gnu/sys/select.h, line 77:	N243 -{typedef __fd_mask fd_mask;}-> N244
/usr/include/x86_64-linux-gnu/sys/select.h, lines 102-105:	N244 -{int select(int __nfds, fd_set *__readfds, fd_set *__writefds, fd_set *__exceptfds, struct timeval *__timeout);}-> N245
/usr/include/x86_64-linux-gnu/sys/select.h, lines 127-131:	N245 -{int pselect(int __nfds, fd_set *__readfds, fd_set *__writefds, fd_set *__exceptfds, const struct timespec *__timeout, const __sigset_t *__sigmask);}-> N246
/usr/include/x86_64-linux-gnu/sys/types.h, line 185:	N246 -{typedef __blksize_t blksize_t;}-> N247
/usr/include/x86_64-linux-gnu/sys/types.h, line 192:	N247 -{typedef __blkcnt_t blkcnt_t;}-> N248
/usr/include/x86_64-linux-gnu/sys/types.h, line 196:	N248 -{typedef __fsblkcnt_t fsblkcnt_t;}-> N249
/usr/include/x86_64-linux-gnu/sys/types.h, line 200:	N249 -{typedef __fsfilcnt_t fsfilcnt_t;}-> N250
/usr/include/x86_64-linux-gnu/bits/atomic_wide_counter.h, lines 28-32:	N250 -{struct __anon_type_0 {   unsigned int __low;   unsigned int __high; } ;}-> N251
/usr/include/x86_64-linux-gnu/bits/atomic_wide_counter.h, lines 25-33:	N251 -{union __anon_type___atomic_wide_counter {   unsigned long long int __value64;   struct __anon_type_0 __value32; } ;}-> N252
/usr/include/x86_64-linux-gnu/bits/atomic_wide_counter.h, lines 25-33:	N252 -{typedef union __anon_type___atomic_wide_counter __atomic_wide_counter;}-> N253
/usr/include/x86_64-linux-gnu/bits/thread-shared-types.h, lines 51-55:	N253 -{struct __pthread_internal_list {   struct __pthread_internal_list *__prev;   struct __pthread_internal_list *__next; } ;}-> N254
/usr/include/x86_64-linux-gnu/bits/thread-shared-types.h, lines 51-55:	N254 -{typedef struct __pthread_internal_list __pthread_list_t;}-> N255
/usr/include/x86_64-linux-gnu/bits/thread-shared-types.h, lines 57-60:	N255 -{struct __pthread_internal_slist {   struct __pthread_internal_slist *__next; } ;}-> N256
/usr/include/x86_64-linux-gnu/bits/thread-shared-types.h, lines 57-60:	N256 -{typedef struct __pthread_internal_slist __pthread_slist_t;}-> N257
/usr/include/x86_64-linux-gnu/bits/struct_mutex.h, lines 22-53:	N257 -{struct __pthread_mutex_s {   int __lock;   unsigned int __count;   int __owner;   unsigned int __nusers;   int __kind;   short __spins;   short __elision;   __pthread_list_t __list; } ;}-> N258
/usr/include/x86_64-linux-gnu/bits/struct_rwlock.h, lines 23-55:	N258 -{struct __pthread_rwlock_arch_t {   unsigned int __readers;   unsigned int __writers;   unsigned int __wrphase_futex;   unsigned int __writers_futex;   unsigned int __pad3;   unsigned int __pad4;   int __cur_writer;   int __shared;   signed char __rwelision;   unsigned char __pad1[7];   unsigned long int __pad2;   unsigned int __flags; } ;}-> N259
/usr/include/x86_64-linux-gnu/bits/thread-shared-types.h, lines 94-103:	N259 -{struct __pthread_cond_s {   __atomic_wide_counter __wseq;   __atomic_wide_counter __g1_start;   unsigned int __g_refs[2];   unsigned int __g_size[2];   unsigned int __g1_orig_size;   unsigned int __wrefs;   unsigned int __g_signals[2]; } ;}-> N260
/usr/include/x86_64-linux-gnu/bits/thread-shared-types.h, line 105:	N260 -{typedef unsigned int __tss_t;}-> N261
/usr/include/x86_64-linux-gnu/bits/thread-shared-types.h, line 106:	N261 -{typedef unsigned long int __thrd_t;}-> N262
/usr/include/x86_64-linux-gnu/bits/thread-shared-types.h, lines 108-111:	N262 -{struct __anon_type___once_flag {   int __data; } ;}-> N263
/usr/include/x86_64-linux-gnu/bits/thread-shared-types.h, lines 108-111:	N263 -{typedef struct __anon_type___once_flag __once_flag;}-> N264
/usr/include/x86_64-linux-gnu/bits/pthreadtypes.h, line 27:	N264 -{typedef unsigned long int pthread_t;}-> N265
/usr/include/x86_64-linux-gnu/bits/pthreadtypes.h, lines 32-36:	N265 -{union __anon_type_pthread_mutexattr_t {   char __size[4];   int __align; } ;}-> N266
/usr/include/x86_64-linux-gnu/bits/pthreadtypes.h, lines 32-36:	N266 -{typedef union __anon_type_pthread_mutexattr_t pthread_mutexattr_t;}-> N267
/usr/include/x86_64-linux-gnu/bits/pthreadtypes.h, lines 41-45:	N267 -{union __anon_type_pthread_condattr_t {   char __size[4];   int __align; } ;}-> N268
/usr/include/x86_64-linux-gnu/bits/pthreadtypes.h, lines 41-45:	N268 -{typedef union __anon_type_pthread_mutexattr_t pthread_condattr_t;}-> N269
/usr/include/x86_64-linux-gnu/bits/pthreadtypes.h, line 49:	N269 -{typedef unsigned int pthread_key_t;}-> N270
/usr/include/x86_64-linux-gnu/bits/pthreadtypes.h, line 53:	N270 -{typedef int pthread_once_t;}-> N271
/usr/include/x86_64-linux-gnu/bits/pthreadtypes.h, lines 56-60:	N271 -{union pthread_attr_t {   char __size[56];   long int __align; } ;}-> N272
/usr/include/x86_64-linux-gnu/bits/pthreadtypes.h, line 62:	N272 -{typedef union pthread_attr_t pthread_attr_t;}-> N273
/usr/include/x86_64-linux-gnu/bits/pthreadtypes.h, lines 67-72:	N273 -{union __anon_type_pthread_mutex_t {   struct __pthread_mutex_s __data;   char __size[40];   long int __align; } ;}-> N274
/usr/include/x86_64-linux-gnu/bits/pthreadtypes.h, lines 67-72:	N274 -{typedef union __anon_type_pthread_mutex_t pthread_mutex_t;}-> N275
/usr/include/x86_64-linux-gnu/bits/pthreadtypes.h, lines 75-80:	N275 -{union __anon_type_pthread_cond_t {   struct __pthread_cond_s __data;   char __size[48];   long long int __align; } ;}-> N276
/usr/include/x86_64-linux-gnu/bits/pthreadtypes.h, lines 75-80:	N276 -{typedef union __anon_type_pthread_cond_t pthread_cond_t;}-> N277
/usr/include/x86_64-linux-gnu/bits/pthreadtypes.h, lines 86-91:	N277 -{union __anon_type_pthread_rwlock_t {   struct __pthread_rwlock_arch_t __data;   char __size[56];   long int __align; } ;}-> N278
/usr/include/x86_64-linux-gnu/bits/pthreadtypes.h, lines 86-91:	N278 -{typedef union __anon_type_pthread_rwlock_t pthread_rwlock_t;}-> N279
/usr/include/x86_64-linux-gnu/bits/pthreadtypes.h, lines 93-97:	N279 -{union __anon_type_pthread_rwlockattr_t {   char __size[8];   long int __align; } ;}-> N280
/usr/include/x86_64-linux-gnu/bits/pthreadtypes.h, lines 93-97:	N280 -{typedef union __anon_type_pthread_rwlockattr_t pthread_rwlockattr_t;}-> N281
/usr/include/x86_64-linux-gnu/bits/pthreadtypes.h, line 103:	N281 -{typedef volatile int pthread_spinlock_t;}-> N282
/usr/include/x86_64-linux-gnu/bits/pthreadtypes.h, lines 108-112:	N282 -{union __anon_type_pthread_barrier_t {   char __size[32];   long int __align; } ;}-> N283
/usr/include/x86_64-linux-gnu/bits/pthreadtypes.h, lines 108-112:	N283 -{typedef union __anon_type_pthread_barrier_t pthread_barrier_t;}-> N284
/usr/include/x86_64-linux-gnu/bits/pthreadtypes.h, lines 114-118:	N284 -{union __anon_type_pthread_barrierattr_t {   char __size[4];   int __align; } ;}-> N285
/usr/include/x86_64-linux-gnu/bits/pthreadtypes.h, lines 114-118:	N285 -{typedef union __anon_type_pthread_mutexattr_t pthread_barrierattr_t;}-> N286
/usr/include/stdlib.h, line 402:	N286 -{long int random();}-> N287
/usr/include/stdlib.h, line 405:	N287 -{void srandom(unsigned int __seed);}-> N288
/usr/include/stdlib.h, lines 411-412:	N288 -{char *initstate(unsigned int __seed, char *__statebuf, size_t __statelen);}-> N289
/usr/include/stdlib.h, line 416:	N289 -{char *setstate(char *__statebuf);}-> N290
/usr/include/stdlib.h, lines 424-433:	N290 -{struct random_data {   int32_t *fptr;   int32_t *rptr;   int32_t *state;   int rand_type;   int rand_deg;   int rand_sep;   int32_t *end_ptr; } ;}-> N291
/usr/include/stdlib.h, lines 435-436:	N291 -{int random_r(struct random_data *__buf, int32_t *__result);}-> N292
/usr/include/stdlib.h, lines 438-439:	N292 -{int srandom_r(unsigned int __seed, struct random_data *__buf);}-> N293
/usr/include/stdlib.h, lines 441-444:	N293 -{int initstate_r(unsigned int __seed, char *__statebuf, size_t __statelen, struct random_data *__buf);}-> N294
/usr/include/stdlib.h, lines 446-448:	N294 -{int setstate_r(char *__statebuf, struct random_data *__buf);}-> N295
/usr/include/stdlib.h, line 454:	N295 -{int rand();}-> N296
/usr/include/stdlib.h, line 456:	N296 -{void srand(unsigned int __seed);}-> N297
/usr/include/stdlib.h, line 460:	N297 -{int rand_r(unsigned int *__seed);}-> N298
/usr/include/stdlib.h, line 468:	N298 -{double drand48();}-> N299
/usr/include/stdlib.h, line 469:	N299 -{double erand48(unsigned short int __xsubi[3]);}-> N300
/usr/include/stdlib.h, line 472:	N300 -{long int lrand48();}-> N301
/usr/include/stdlib.h, lines 473-474:	N301 -{long int nrand48(unsigned short int __xsubi[3]);}-> N302
/usr/include/stdlib.h, line 477:	N302 -{long int mrand48();}-> N303
/usr/include/stdlib.h, lines 478-479:	N303 -{long int jrand48(unsigned short int __xsubi[3]);}-> N304
/usr/include/stdlib.h, line 482:	N304 -{void srand48(long int __seedval);}-> N305
/usr/include/stdlib.h, lines 483-484:	N305 -{unsigned short int *seed48(unsigned short int __seed16v[3]);}-> N306
/usr/include/stdlib.h, line 485:	N306 -{void lcong48(unsigned short int __param[7]);}-> N307
/usr/include/stdlib.h, lines 491-499:	N307 -{struct drand48_data {   unsigned short int __x[3];   unsigned short int __old_x[3];   unsigned short int __c;   unsigned short int __init;   unsigned long long int __a; } ;}-> N308
/usr/include/stdlib.h, lines 502-503:	N308 -{int drand48_r(struct drand48_data *__buffer, double *__result);}-> N309
/usr/include/stdlib.h, lines 504-506:	N309 -{int erand48_r(unsigned short int __xsubi[3], struct drand48_data *__buffer, double *__result);}-> N310
/usr/include/stdlib.h, lines 509-511:	N310 -{int lrand48_r(struct drand48_data *__buffer, long int *__result);}-> N311
/usr/include/stdlib.h, lines 512-515:	N311 -{int nrand48_r(unsigned short int __xsubi[3], struct drand48_data *__buffer, long int *__result);}-> N312
/usr/include/stdlib.h, lines 518-520:	N312 -{int mrand48_r(struct drand48_data *__buffer, long int *__result);}-> N313
/usr/include/stdlib.h, lines 521-524:	N313 -{int jrand48_r(unsigned short int __xsubi[3], struct drand48_data *__buffer, long int *__result);}-> N314
/usr/include/stdlib.h, lines 527-528:	N314 -{int srand48_r(long int __seedval, struct drand48_data *__buffer);}-> N315
/usr/include/stdlib.h, lines 530-531:	N315 -{int seed48_r(unsigned short int __seed16v[3], struct drand48_data *__buffer);}-> N316
/usr/include/stdlib.h, lines 533-535:	N316 -{int lcong48_r(unsigned short int __param[7], struct drand48_data *__buffer);}-> N317
/usr/include/stdlib.h, lines 540-541:	N317 -{void *malloc(size_t __size);}-> N318
/usr/include/stdlib.h, lines 543-544:	N318 -{void *calloc(size_t __nmemb, size_t __size);}-> N319
/usr/include/stdlib.h, lines 551-552:	N319 -{void *realloc(void *__ptr, size_t __size);}-> N320
/usr/include/stdlib.h, line 555:	N320 -{void free(void *__ptr);}-> N321
/usr/include/stdlib.h, lines 563-566:	N321 -{void *reallocarray(void *__ptr, size_t __nmemb, size_t __size);}-> N322
/usr/include/alloca.h, line 32:	N322 -{void *alloca(size_t __size);}-> N323
/usr/include/stdlib.h, lines 580-581:	N323 -{void *valloc(size_t __size);}-> N324
/usr/include/stdlib.h, lines 586-587:	N324 -{int posix_memalign(void **__memptr, size_t __alignment, size_t __size);}-> N325
/usr/include/stdlib.h, lines 592-594:	N325 -{void *aligned_alloc(size_t __alignment, size_t __size);}-> N326
/usr/include/stdlib.h, line 598:	N326 -{void abort();}-> N327
/usr/include/stdlib.h, line 602:	N327 -{int atexit(void (*__func)());}-> N328
/usr/include/stdlib.h, line 610:	N328 -{int at_quick_exit(void (*__func)());}-> N329
/usr/include/stdlib.h, lines 617-618:	N329 -{int on_exit(void (*__func)(int __status, void *__arg), void *__arg);}-> N330
/usr/include/stdlib.h, line 624:	N330 -{void exit(int __status);}-> N331
/usr/include/stdlib.h, line 630:	N331 -{void quick_exit(int __status);}-> N332
/usr/include/stdlib.h, line 636:	N332 -{void _Exit(int __status);}-> N333
/usr/include/stdlib.h, line 641:	N333 -{char *getenv(const char *__name);}-> N334
/usr/include/stdlib.h, line 654:	N334 -{int putenv(char *__string);}-> N335
/usr/include/stdlib.h, lines 660-661:	N335 -{int setenv(const char *__name, const char *__value, int __replace);}-> N336
/usr/include/stdlib.h, line 664:	N336 -{int unsetenv(const char *__name);}-> N337
/usr/include/stdlib.h, line 671:	N337 -{int clearenv();}-> N338
/usr/include/stdlib.h, line 682:	N338 -{char *mktemp(char *__template);}-> N339
/usr/include/stdlib.h, line 695:	N339 -{int mkstemp(char *__template);}-> N340
/usr/include/stdlib.h, line 717:	N340 -{int mkstemps(char *__template, int __suffixlen);}-> N341
/usr/include/stdlib.h, line 738:	N341 -{char *mkdtemp(char *__template);}-> N342
/usr/include/stdlib.h, line 791:	N342 -{int system(const char *__command);}-> N343
/usr/include/stdlib.h, lines 808-809:	N343 -{char *realpath(const char *__name, char *__resolved);}-> N344
/usr/include/stdlib.h, line 816:	N344 -{typedef int (*__compar_fn_t)(const void *, const void *);}-> N345
/usr/include/stdlib.h, lines 828-830:	N345 -{void *bsearch(const void *__key, const void *__base, size_t __nmemb, size_t __size, __compar_fn_t __compar);}-> N346
/usr/include/stdlib.h, lines 838-839:	N346 -{void qsort(void *__base, size_t __nmemb, size_t __size, __compar_fn_t __compar);}-> N347
/usr/include/stdlib.h, line 848:	N347 -{int abs(int __x);}-> N348
/usr/include/stdlib.h, line 849:	N348 -{long int labs(long int __x);}-> N349
/usr/include/stdlib.h, lines 852-853:	N349 -{long long int llabs(long long int __x);}-> N350
/usr/include/stdlib.h, lines 860-861:	N350 -{div_t div(int __numer, int __denom);}-> N351
/usr/include/stdlib.h, lines 862-863:	N351 -{ldiv_t ldiv(long int __numer, long int __denom);}-> N352
/usr/include/stdlib.h, lines 866-868:	N352 -{lldiv_t lldiv(long long int __numer, long long int __denom);}-> N353
/usr/include/stdlib.h, lines 880-881:	N353 -{char *ecvt(double __value, int __ndigit, int *__decpt, int *__sign);}-> N354
/usr/include/stdlib.h, lines 886-887:	N354 -{char *fcvt(double __value, int __ndigit, int *__decpt, int *__sign);}-> N355
/usr/include/stdlib.h, lines 892-893:	N355 -{char *gcvt(double __value, int __ndigit, char *__buf);}-> N356
/usr/include/stdlib.h, lines 898-900:	N356 -{char *qecvt(long double __value, int __ndigit, int *__decpt, int *__sign);}-> N357
/usr/include/stdlib.h, lines 901-903:	N357 -{char *qfcvt(long double __value, int __ndigit, int *__decpt, int *__sign);}-> N358
/usr/include/stdlib.h, lines 904-905:	N358 -{char *qgcvt(long double __value, int __ndigit, char *__buf);}-> N359
/usr/include/stdlib.h, lines 910-912:	N359 -{int ecvt_r(double __value, int __ndigit, int *__decpt, int *__sign, char *__buf, size_t __len);}-> N360
/usr/include/stdlib.h, lines 913-915:	N360 -{int fcvt_r(double __value, int __ndigit, int *__decpt, int *__sign, char *__buf, size_t __len);}-> N361
/usr/include/stdlib.h, lines 917-920:	N361 -{int qecvt_r(long double __value, int __ndigit, int *__decpt, int *__sign, char *__buf, size_t __len);}-> N362
/usr/include/stdlib.h, lines 921-924:	N362 -{int qfcvt_r(long double __value, int __ndigit, int *__decpt, int *__sign, char *__buf, size_t __len);}-> N363
/usr/include/stdlib.h, line 930:	N363 -{int mblen(const char *__s, size_t __n);}-> N364
/usr/include/stdlib.h, lines 933-934:	N364 -{int mbtowc(wchar_t *__pwc, const char *__s, size_t __n);}-> N365
/usr/include/stdlib.h, line 937:	N365 -{int wctomb(char *__s, wchar_t __wchar);}-> N366
/usr/include/stdlib.h, lines 941-943:	N366 -{size_t mbstowcs(wchar_t *__pwcs, const char *__s, size_t __n);}-> N367
/usr/include/stdlib.h, lines 945-949:	N367 -{size_t wcstombs(char *__s, const wchar_t *__pwcs, size_t __n);}-> N368
/usr/include/stdlib.h, line 956:	N368 -{int rpmatch(const char *__response);}-> N369
/usr/include/stdlib.h, lines 967-970:	N369 -{int getsubopt(char **__optionp, char * const *__tokens, char **__valuep);}-> N370
/usr/include/stdlib.h, lines 1013-1014:	N370 -{int getloadavg(double __loadavg[], int __nelem);}-> N371
lines 4-6:	N371 -{void assume(int cond);}-> N372
lines 8-38:	N372 -{int main();}-> N373
none:	N373 -{Function start dummy edge}-> N38
line 9:	N38 -{int iVar1;}-> N39
line 10:	N39 -{int local_24;}-> N40
	local_24 == 2;
line 11:	N40 -{int local_20;}-> N41
	local_20 == 1;
line 12:	N41 -{int tmp_var_1_int;}-> N42
line 13:	N42 -{int n;}-> N43
line 14:	N43 -{int y;}-> N44
line 16:	N44 -{n = 0;}-> N45
	n == 0;
line 17:	N45 -{tmp_var_1_int = 0;}-> N46
	tmp_var_1_int == 0;
line 18:	N46 -{[0 < local_20]}-> N48
	local_20 == 1;
	local_20 == 1;
line 19:	N48 -{for}-> N49
lines 19-32:	N49 -{y = 0;}-> N50
	y == 0;
line 19:	N50 -{[y < local_20]}-> N52
	y == 0;
	local_20 == 1;
	y == 0;
local_20 == 1;
line 20:	N52 -{iVar1 = n - tmp_var_1_int;}-> N54
	iVar1 == 0;
line 21:	N54 -{[!(iVar1 != 0)]}-> N55
	iVar1 == 0;
	iVar1 == 0;
line 24:	N55 -{tmp_var_1_int = local_24;}-> N68
	tmp_var_1_int == 2;
line 25:	N68 -{[!(local_24 == 0)]}-> N69
	local_24 == 2;
	local_24 == 2;
line 28:	N69 -{n = local_24 + iVar1;}-> N72
	n == 2;
line 29:	N72 -{[!(n == 0)]}-> N73
	n == 2;
	n == 2;
none:	N73 -{}-> N51
lines 19-32:	N51 -{y = y + 1;}-> N50
	y == 1;
line 19:	N50 -{[!(y < local_20)]}-> N53
	y == 1;
	local_20 == 1;
	y == 1;
local_20 == 1;
line 33:	N53 -{[n != 0]}-> N87
	n == 2;
	n == 2;
line 34:	N87 -{int __CPAchecker_TMP_8;}-> N88
line 34:	N88 -{}-> N90
line 34:	N90 -{__CPAchecker_TMP_8 = 0;}-> N92
line 34:	N92 -{4UL;}-> N93
line 34:	N93 -{}-> N96
line 34:	N96 -{__assert_fail("0 && \"Assertion failed: n should be 0\"", "/home/zyl/biVerify/CPA_DATA2/C/F/llmfix/realOutput/iterationTry/for_bounded_loop1_process_dc_iter1.c", 34, "__PRETTY_FUNCTION__");}-> N375
